30
0 1 0.71 0.22
0 2 0.63 0.15
0 3 0.74 0.3
0 4 0.72 0.26
0 5 0.28 0.2
0 6 0.4 0.31
0 7 0.83 0.32
0 8 0.49 0.29
0 9 0.73 0.21
0 10 0.71 0.26
0 11 0.74 0.31
0 12 0.51 0.37
0 13 0.54 0.33
0 14 0.81 0.17
0 15 0.54 0.25
0 16 0.68 0.05
0 17 0.43 0.23
0 18 0.54 0.2
0 19 0.64 0.27
0 20 0.39 0.2
0 21 0.58 0.25
0 22 0.78 0.17
0 23 0.66 0.3
0 24 0.65 0.21
0 25 0.74 0.34
0 26 0.63 0.19
0 27 0.64 0.35
0 28 0.59 0.29
0 29 0.39 0.21
1 2 0.46 0.16
1 3 0.34 0.26
1 4 0.46 0.18
1 5 0.48 0.02
1 6 0.68 0.21
1 7 0.74 0.16
1 8 0.38 0.2
1 9 0.62 0.19
1 10 0.62 0.1
1 11 0.74 0.24
1 12 0.36 0.15
1 13 0.67 0.14
1 14 0.6 0.24
1 15 0.66 0.1
1 16 0.58 0.24
1 17 0.55 0.16
1 18 0.71 0.16
1 19 0.5 0.2
1 20 0.6 0.1
1 21 0.76 0.26
1 22 0.68 0.23
1 23 0.42 0.28
1 24 0.43 0.19
1 25 0.5 0.16
1 26 0.54 0.17
1 27 0.74 0.21
1 28 0.48 0.36
1 29 0.36 0.11
2 3 0.54 0.23
2 4 0.26 0.23
2 5 0.48 0.18
2 6 0.62 0.23
2 7 0.48 0.31
2 8 0.54 0.18
2 9 0.58 0.21
2 10 0.52 0.25
2 11 0.68 0.22
2 12 0.5 0.31
2 13 0.44 0.28
2 14 0.38 0.1
2 15 0.31 0.12
2 16 0.52 0.1
2 17 0.45 0.18
2 18 0.64 0.23
2 19 0.62 0.22
2 20 0.4 0.12
2 21 0.48 0.22
2 22 0.67 0.22
2 23 0.69 0.3
2 24 0.69 0.21
2 25 0.75 0.26
2 26 0.61 0.19
2 27 0.4 0.2
2 28 0.62 0.34
2 29 0.6 0.13
3 4 0.64 0.32
3 5 0.6 0.24
3 6 0.51 0.27
3 7 0.74 0.31
3 8 0.64 0.33
3 9 0.61 0.12
3 10 0.61 0.25
3 11 0.7 0.28
3 12 0.66 0.32
3 13 0.71 0.28
3 14 0.72 0.13
3 15 0.64 0.16
3 16 0.6 0.25
3 17 0.34 0.22
3 18 0.62 0.27
3 19 0.54 0.25
3 20 0.45 0.21
3 21 0.52 0.37
3 22 0.34 0.22
3 23 0.46 0.24
3 24 0.48 0.22
3 25 0.54 0.26
3 26 0.66 0.14
3 27 0.4 0.14
3 28 0.64 0.18
3 29 0.42 0.22
4 5 0.44 0.2
4 6 0.54 0.33
4 7 0.74 0.25
4 8 0.68 0.3
4 9 0.54 0.2
4 10 0.76 0.28
4 11 0.42 0.26
4 12 0.76 0.33
4 13 0.58 0.18
4 14 0.6 0.33
4 15 0.57 0.28
4 16 0.7 0.29
4 17 0.55 0.24
4 18 0.69 0.27
4 19 0.36 0.2
4 20 0.56 0.11
4 21 0.72 0.27
4 22 0.74 0.24
4 23 0.58 0.29
4 24 0.54 0.2
4 25 0.54 0.2
4 26 0.38 0.18
4 27 0.66 0.29
4 28 0.42 0.34
4 29 0.34 0.12
5 6 0.63 0.19
5 7 0.72 0.14
5 8 0.5 0.18
5 9 0.56 0.21
5 10 0.45 0.08
5 11 0.74 0.22
5 12 0.64 0.17
5 13 0.66 0.16
5 14 0.66 0.22
5 15 0.41 0.08
5 16 0.66 0.25
5 17 0.51 0.14
5 18 0.8 0.18
5 19 0.75 0.18
5 20 0.67 0.12
5 21 0.86 0.28
5 22 0.72 0.25
5 23 0.68 0.29
5 24 0.66 0.21
5 25 0.53 0.18
5 26 0.48 0.19
5 27 0.36 0.19
5 28 0.62 0.34
5 29 0.54 0.13
6 7 0.43 0.3
6 8 0.46 0.27
6 9 0.54 0.23
6 10 0.62 0.24
6 11 0.44 0.07
6 12 0.63 0.28
6 13 0.51 0.24
6 14 0.55 0.25
6 15 0.47 0.11
6 16 0.43 0.26
6 17 0.17 0.15
6 18 0.58 0.2
6 19 0.5 0.19
6 20 0.64 0.27
6 21 0.46 0.21
6 22 0.5 0.14
6 23 0.26 0.1
6 24 0.3 0.18
6 25 0.79 0.26
6 26 0.46 0.21
6 27 0.27 0.16
6 28 0.38 0.22
6 29 0.79 0.26
7 8 0.62 0.2
7 9 0.62 0.28
7 10 0.38 0.06
7 11 0.6 0.28
7 12 0.52 0.29
7 13 0.71 0.22
7 14 0.68 0.33
7 15 0.62 0.19
7 16 0.42 0.32
7 17 0.6 0.24
7 18 0.49 0.29
7 19 0.5 0.2
7 20 0.56 0.19
7 21 0.26 0.14
7 22 0.65 0.25
7 23 0.54 0.36
7 24 0.6 0.21
7 25 0.69 0.2
7 26 0.74 0.26
7 27 0.39 0.17
7 28 0.74 0.45
7 29 0.78 0.2
8 9 0.75 0.29
8 10 0.24 0.14
8 11 0.66 0.3
8 12 0.48 0.19
8 13 0.48 0.27
8 14 0.46 0.28
8 15 0.28 0.24
8 16 0.59 0.27
8 17 0.43 0.24
8 18 0.39 0.26
8 19 0.62 0.28
8 20 0.5 0.2
8 21 0.58 0.34
8 22 0.48 0.15
8 23 0.54 0.17
8 24 0.16 0.11
8 25 0.5 0.29
8 26 0.6 0.27
8 27 0.64 0.25
8 28 0.51 0.45
8 29 0.64 0.19
9 10 0.51 0.29
9 11 0.35 0.24
9 12 0.48 0.22
9 13 0.36 0.16
9 14 0.42 0.18
9 15 0.7 0.26
9 16 0.58 0.16
9 17 0.46 0.21
9 18 0.38 0.16
9 19 0.58 0.22
9 20 0.73 0.09
9 21 0.7 0.25
9 22 0.65 0.22
9 23 0.36 0.13
9 24 0.6 0.18
9 25 0.38 0.14
9 26 0.16 0.02
9 27 0.62 0.26
9 28 0.76 0.3
9 29 0.72 0.1
10 11 0.68 0.25
10 12 0.33 0.23
10 13 0.72 0.2
10 14 0.54 0.27
10 15 0.24 0.13
10 16 0.55 0.31
10 17 0.52 0.19
10 18 0.63 0.24
10 19 0.58 0.23
10 20 0.74 0.2
10 21 0.58 0.2
10 22 0.27 0.19
10 23 0.69 0.31
10 24 0.4 0.15
10 25 0.74 0.22
10 26 0.49 0.27
10 27 0.7 0.11
10 28 0.6 0.39
10 29 0.5 0.21
11 12 0.68 0.3
11 13 0.71 0.18
11 14 0.75 0.28
11 15 0.44 0.14
11 16 0.47 0.26
11 17 0.42 0.08
11 18 0.27 0.13
11 19 0.61 0.12
11 20 0.78 0.28
11 21 0.48 0.14
11 22 0.63 0.21
11 23 0.7 0.17
11 24 0.64 0.19
11 25 0.5 0.2
11 26 0.51 0.22
11 27 0.52 0.14
11 28 0.57 0.29
11 29 0.49 0.27
12 13 0.75 0.29
12 14 0.68 0.36
12 15 0.56 0.25
12 16 0.62 0.33
12 17 0.5 0.22
12 18 0.6 0.27
12 19 0.7 0.26
12 20 0.81 0.25
12 21 0.4 0.38
12 22 0.32 0.21
12 23 0.5 0.31
12 24 0.64 0.25
12 25 0.46 0.31
12 26 0.64 0.2
12 27 0.52 0.24
12 28 0.53 0.33
12 29 0.71 0.26
13 14 0.77 0.24
13 15 0.54 0.16
13 16 0.49 0.28
13 17 0.68 0.1
13 18 0.56 0.15
13 19 0.22 0.06
13 20 0.76 0.2
13 21 0.45 0.16
13 22 0.5 0.27
13 23 0.25 0.14
13 24 0.6 0.23
13 25 0.44 0.02
13 26 0.45 0.18
13 27 0.42 0.27
13 28 0.72 0.35
13 29 0.7 0.21
14 15 0.58 0.14
14 16 0.28 0.12
14 17 0.38 0.2
14 18 0.48 0.17
14 19 0.76 0.18
14 20 0.51 0.22
14 21 0.56 0.32
14 22 0.58 0.24
14 23 0.58 0.27
14 24 0.31 0.28
14 25 0.6 0.26
14 26 0.46 0.16
14 27 0.64 0.21
14 28 0.55 0.31
14 29 0.52 0.23
15 16 0.56 0.22
15 17 0.3 0.06
15 18 0.42 0.11
15 19 0.34 0.1
15 20 0.68 0.2
15 21 0.74 0.28
15 22 0.46 0.23
15 23 0.73 0.21
15 24 0.44 0.19
15 25 0.69 0.18
15 26 0.73 0.27
15 27 0.62 0.24
15 28 0.48 0.26
15 29 0.36 0.21
16 17 0.26 0.18
16 18 0.2 0.15
16 19 0.49 0.22
16 20 0.31 0.18
16 21 0.55 0.2
16 22 0.3 0.12
16 23 0.69 0.25
16 24 0.59 0.16
16 25 0.38 0.29
16 26 0.54 0.14
16 27 0.56 0.3
16 28 0.32 0.24
16 29 0.36 0.19
17 18 0.46 0.05
17 19 0.64 0.04
17 20 0.57 0.22
17 21 0.63 0.22
17 22 0.44 0.17
17 23 0.43 0.24
17 24 0.47 0.13
17 25 0.64 0.12
17 26 0.62 0.23
17 27 0.44 0.22
17 28 0.5 0.32
17 29 0.62 0.21
18 19 0.34 0.09
18 20 0.51 0.25
18 21 0.75 0.27
18 22 0.36 0.22
18 23 0.61 0.29
18 24 0.53 0.18
18 25 0.27 0.14
18 26 0.54 0.18
18 27 0.54 0.27
18 28 0.38 0.32
18 29 0.56 0.26
19 20 0.54 0.26
19 21 0.67 0.22
19 22 0.6 0.21
19 23 0.47 0.2
19 24 0.77 0.17
19 25 0.61 0.08
19 26 0.62 0.24
19 27 0.64 0.26
19 28 0.72 0.36
19 29 0.7 0.25
20 21 0.54 0.16
20 22 0.58 0.13
20 23 0.62 0.18
20 24 0.34 0.09
20 25 0.35 0.22
20 26 0.76 0.07
20 27 0.38 0.18
20 28 0.63 0.39
20 29 0.65 0.01
21 22 0.58 0.29
21 23 0.34 0.24
21 24 0.64 0.25
21 25 0.66 0.18
21 26 0.54 0.23
21 27 0.5 0.28
21 28 0.84 0.43
21 29 0.73 0.17
22 23 0.5 0.24
22 24 0.5 0.04
22 25 0.52 0.29
22 26 0.62 0.2
22 27 0.5 0.19
22 28 0.62 0.36
22 29 0.58 0.12
23 24 0.56 0.27
23 25 0.69 0.16
23 26 0.2 0.11
23 27 0.53 0.26
23 28 0.64 0.32
23 29 0.78 0.19
24 25 0.49 0.25
24 26 0.44 0.16
24 27 0.51 0.23
24 28 0.46 0.4
24 29 0.66 0.08
25 26 0.54 0.16
25 27 0.73 0.29
25 28 0.52 0.37
25 29 0.48 0.23
26 27 0.73 0.25
26 28 0.8 0.32
26 29 0.72 0.08
27 28 0.65 0.32
27 29 0.72 0.19
28 29 0.68 0.4
